
Gurobi 12.0.3 (linux64) logging started Fri Mar 27 13:11:22 2026

Set parameter LogFile to value "/home/solar-wind/WT_Solar_results_bigM100000_thread4/case24_ieee_rts_theta0.15_epsilon0.1_gurobi_seed30000_num_gen38_N_WDR150_load_scaling_factor1_EIFICA_T24_num_Solar5_num_WT10.txt"
Gurobi Optimizer version 12.0.3 build v12.0.3rc0 (linux64 - "Ubuntu 22.04.5 LTS")

CPU model: Intel(R) Xeon(R) Platinum 8378A CPU @ 3.00GHz, instruction set [SSE2|AVX|AVX2|AVX512]
Thread count: 32 physical cores, 64 logical processors, using up to 4 threads

Non-default parameters:
TimeLimit  14400
MIPGap  0.001
Seed  30000
Threads  4

Academic license 2721591 - for non-commercial use only - registered to fa___@mails.neu.edu.cn
Optimize a model with 497468 rows, 1975 columns and 38809528 nonzeros
Model fingerprint: 0x17dc51d0
Model has 912 quadratic objective terms
Coefficient statistics:
  Matrix range     [3e-07, 7e+01]
  Objective range  [2e+01, 6e+01]
  QObjective range [4e-03, 2e-02]
  Bounds range     [0e+00, 0e+00]
  RHS range        [3e-02, 1e+03]
Presolve removed 355306 rows and 0 columns
Presolve time: 4.01s
Presolved: 142162 rows, 2849 columns, 3028266 nonzeros
Presolved model has 912 quadratic objective terms
Elapsed ordering time = 11s
Ordering time: 20.34s
Elapsed ordering time = 21s
Elapsed ordering time = 26s
Elapsed ordering time = 30s
Elapsed ordering time = 30s
Elapsed ordering time = 33s
Elapsed ordering time = 35s
Elapsed ordering time = 37s
Ordering time: 40.24s

Barrier statistics:
 Dense cols : 1044
 AA' NZ     : 1.146e+08
 Factor NZ  : 5.026e+08 (roughly 4.0 GB of memory)
 Factor Ops : 6.060e+12 (roughly 30 seconds per iteration)
 Threads    : 4

                  Objective                Residual
Iter       Primal          Dual         Primal    Dual     Compl     Time
   0   5.56054675e+08 -2.96550507e+08  3.75e+04 9.92e+02  9.91e+05   108s
   1   4.60888940e+08 -2.08471392e+08  3.31e+04 8.73e+02  8.75e+05   108s
   2   4.51613925e+08 -2.08448525e+08  3.26e+04 8.61e+02  8.72e+05   108s
   3   4.32089607e+08 -2.08857754e+08  3.16e+04 8.36e+02  8.47e+05   109s
   4   4.08583640e+08 -2.11205483e+08  3.05e+04 8.04e+02  8.15e+05   109s
   5   3.76787607e+08 -2.44115210e+08  2.89e+04 7.60e+02  7.86e+05   109s
   6   3.21695531e+08 -2.94109615e+08  2.60e+04 6.80e+02  7.31e+05   109s
   7   2.67161795e+08 -3.47366968e+08  2.29e+04 5.94e+02  6.69e+05   109s
   8   2.33850723e+08 -3.83378062e+08  2.09e+04 5.38e+02  6.25e+05   109s
   9   1.97120721e+08 -4.10422935e+08  1.84e+04 4.72e+02  5.51e+05   109s
  10   1.71980824e+08 -4.45020768e+08  1.67e+04 4.26e+02  5.12e+05   110s
  11   1.44242283e+08 -4.99967320e+08  1.46e+04 3.70e+02  4.79e+05   110s
  12   9.78599604e+07 -5.51207367e+08  1.07e+04 2.67e+02  3.53e+05   110s
  13   8.21602496e+07 -5.69532442e+08  9.27e+03 2.30e+02  3.05e+05   110s
  14   6.48811057e+07 -5.91342550e+08  7.61e+03 1.87e+02  2.50e+05   110s
  15   5.37094533e+07 -6.12236003e+08  6.48e+03 1.58e+02  2.12e+05   110s
  16   4.24792715e+07 -6.31217197e+08  5.27e+03 1.27e+02  1.72e+05   110s
  17   3.21321724e+07 -6.45648459e+08  4.09e+03 9.80e+01  1.34e+05   110s
  18   2.15558095e+07 -6.52854423e+08  2.80e+03 6.69e+01  9.36e+04   110s
  19   1.52272651e+07 -6.46424511e+08  2.48e+03 4.76e+01  6.77e+04   110s
  20   5.91547770e+06 -6.10575446e+08  3.69e+03 1.80e+01  3.18e+04   110s
  21   4.78962707e+06 -5.70547616e+08  3.19e+03 1.43e+01  2.55e+04   110s
  22   3.73439528e+06 -5.16334473e+08  2.27e+03 1.08e+01  1.95e+04   110s
  23   2.80891342e+06 -4.54863653e+08  1.54e+03 7.79e+00  1.43e+04   111s
  24   2.16272772e+06 -3.99234054e+08  1.07e+03 5.64e+00  1.05e+04   111s
  25   1.29840249e+06 -3.78207408e+08  3.13e+02 2.63e+00  6.56e+03   111s
  26   1.07934912e+06 -3.15469459e+08  2.13e+02 1.81e+00  4.63e+03   111s
  27   8.66695990e+05 -2.85557969e+08  1.00e+02 8.82e-01  3.16e+03   111s
  28   7.67834987e+05 -2.36577498e+08  5.63e+01 4.83e-01  2.22e+03   111s
  29   7.42588060e+05 -2.20109542e+08  4.22e+01 3.64e-01  1.94e+03   111s
  30   7.30779489e+05 -2.01300926e+08  3.54e+01 3.05e-01  1.73e+03   112s
  31   7.17015815e+05 -1.76418479e+08  2.72e+01 2.33e-01  1.45e+03   112s
  32   7.13469773e+05 -1.68024343e+08  2.48e+01 2.12e-01  1.37e+03   112s
  33   7.04384084e+05 -1.43777462e+08  1.82e+01 1.55e-01  1.14e+03   113s
  34   7.01041986e+05 -1.19066502e+08  1.47e+01 1.25e-01  9.25e+02   113s
  35   6.97395538e+05 -9.50356960e+07  9.82e+00 8.47e-02  7.28e+02   114s
  36   6.97144055e+05 -9.23939985e+07  9.56e+00 8.25e-02  7.09e+02   116s
  37   6.92841496e+05 -5.30198429e+07  5.07e+00 4.38e-02  3.92e+02   130s
  38   6.87228225e+05 -8.32014662e+06  5.90e-06 2.91e-03  6.17e+01   144s
  39   6.77028183e+05  2.71756404e+05  9.33e-04 2.04e-02  2.78e+00   159s
  40   6.16775291e+05  5.15996245e+05  8.47e-05 1.59e-03  6.91e-01   175s
  41   5.98443284e+05  5.78513081e+05  1.10e-05 2.03e-04  1.37e-01   340s
  42   5.95610198e+05  5.85381525e+05  2.28e-06 4.22e-05  7.01e-02   365s
  43   5.94494731e+05  5.89543444e+05  1.96e-07 3.62e-06  3.39e-02   391s
  44   5.93827538e+05  5.92611056e+05  5.10e-09 9.48e-08  8.34e-03   417s
  45   5.93736186e+05  5.93006234e+05  4.65e-10 1.48e-09  5.00e-03   444s
  46   5.93674971e+05  5.93301769e+05  2.20e-10 6.24e-09  2.56e-03   471s
  47   5.93624692e+05  5.93545060e+05  3.28e-10 3.56e-09  5.46e-04   497s
  48   5.93614814e+05  5.93591793e+05  3.11e-10 5.03e-11  1.58e-04   523s
  49   5.93611177e+05  5.93609160e+05  2.60e-09 2.33e-12  1.38e-05   547s
  50   5.93610827e+05  5.93610824e+05  1.78e-09 1.80e-11  1.54e-08   575s
  51   5.93610826e+05  5.93610826e+05  9.09e-08 1.67e-09  1.26e-09   651s

Barrier solved model in 51 iterations and 651.30 seconds (567.38 work units)
Optimal objective 5.93610826e+05

